c --- [ banner ] -------------------------------------------------------------
c 
c CaDiCaL Radically Simplified CDCL SAT Solver
c Copyright (c) 2016-2021 A. Biere, M. Fleury, N. Froleyks
c 
c Version 1.5.2 ca9bff05c11bde5eae4912f9932871d1527e61d8
c g++ (GCC) 9.3.0 -Wall -Wextra -O3 -DNDEBUG
c Sun May 1 02:23:23 EDT 2022 Linux gra-login1 3.10.0-1160.59.1.el7.x86_64 x86_64
c 
c --- [ limit ] --------------------------------------------------------------
c 
c setting conflict limit to 200000 conflicts (due to '200000')
c 
c --- [ parsing input ] ------------------------------------------------------
c 
c reading DIMACS file from '26.cubes302.adj'
c opening file to read '26.cubes302.adj'
c found 'p cnf 5320 924202' header
c parsed 924202 clauses in 8.73 seconds process time
c closing file '26.cubes302.adj'
c after reading 686668065 bytes 654.9 MB
c 
c --- [ options ] ------------------------------------------------------------
c 
c all options are set to their default value
c 
c --- [ solving ] ------------------------------------------------------------
c 
c time measured in process time since initialization
c 
c  seconds   reductions  redundant  irredundant
c          MB    restarts       trail      variables
c           level   conflicts       glue        remaining
c 
c *  8.73 685  0 0   0    0    0  0% 0 923580 3984 75%
c { 10.00 735  0 0   0    0    0  0% 0 923580 3984 75%
c i 11.30 755 119 0   8   65   51 52% 12 923580 3983 75%
c i 11.62 758 110 0  11   76   61 53% 17 923580 3982 75%
c i 11.70 759 110 0  12   83   67 53% 18 923580 3981 75%
c i 12.12 765 111 0  16   99   78 52% 24 923580 3980 75%
c i 12.20 766 122 0  17  108   83 53% 29 923580 3976 75%
c i 12.31 766 120 0  19  124   91 53% 35 923580 3975 75%
c i 12.53 767 104 0  25  156  113 54% 33 923580 3974 75%
c i 12.53 767 104 0  26  158  114 54% 33 923580 3973 75%
c i 12.54 767 103 0  26  160  115 54% 33 923580 3972 75%
c i 12.56 767 101 0  28  168  120 54% 34 923580 3971 75%
c i 12.88 768 102 0  36  217  159 53% 36 923580 3970 75%
c i 12.92 768 102 0  38  232  171 53% 39 923580 3969 75%
c i 12.96 768 102 0  41  242  179 53% 40 923580 3968 75%
c i 12.97 768 103 0  42  250  185 53% 42 923580 3967 75%
c i 13.14 768 107 0  46  266  197 52% 44 923580 3965 75%
c i 13.15 768 108 0  47  268  198 52% 44 923580 3964 75%
c i 13.28 768 108 0  50  281  210 52% 45 923580 3963 74%
c i 13.39 769 106 0  53  295  220 52% 46 923580 3962 74%
c 
c  seconds    reductions  redundant   irredundant
c          MB     restarts       trail       variables
c            level   conflicts       glue         remaining
c 
c - 15.06 750 105 1  56  301  225 52% 45 238941 3962 74%
c i 15.18 734 97 1  57  329  247 51% 42 238941 3961 74%
c i 15.21 734 97 1  57  330  247 51% 42 238941 3960 74%
c i 15.22 734 96 1  57  333  249 51% 42 238941 3959 74%
c i 15.24 734 95 1  57  339  254 51% 41 238941 3958 74%
c i 15.28 734 93 1  57  355  268 51% 41 238941 3957 74%
c i 15.43 734 89 1  58  460  330 51% 40 238941 3956 74%
c i 15.45 734 89 1  58  481  349 51% 39 238941 3955 74%
c i 15.45 734 89 1  58  483  350 51% 39 238941 3954 74%
c i 15.45 734 89 1  58  484  350 51% 39 238941 3953 74%
c i 15.45 734 89 1  58  487  352 51% 39 238941 3952 74%
c i 15.46 734 89 1  58  495  359 51% 40 238941 3951 74%
c i 15.47 734 88 1  58  507  370 51% 40 238941 3950 74%
c i 15.61 700 90 1  59  530  385 51% 41 238941 3949 74%
c i 15.78 700 93 1  64  564  410 51% 42 238941 3948 74%
c i 16.11 700 91 1  73  614  443 50% 41 238941 3928 74%
c i 16.19 700 91 1  73  623  451 51% 41 238941 3927 74%
c i 16.20 700 91 1  73  642  468 51% 42 238941 3926 74%
c i 16.21 700 91 1  73  649  472 51% 42 238941 3925 74%
c i 16.24 700 91 1  75  655  477 51% 42 238941 3924 74%
c 
c  seconds   reductions  redundant   irredundant
c          MB    restarts       trail       variables
c           level   conflicts       glue         remaining
c 
c i 16.24 700 91 1  75  659  480 51% 42 238941 3923 74%
c i 16.27 700 90 1  75  672  489 51% 41 238941 3922 74%
c i 16.28 700 89 1  75  679  495 51% 41 238941 3921 74%
c i 16.30 700 88 1  75  691  503 51% 41 238941 3920 74%
c i 16.31 700 86 1  75  715  523 51% 40 238941 3919 74%
c i 16.32 700 86 1  75  716  523 51% 40 238941 3918 74%
c i 16.32 700 86 1  75  718  524 51% 40 238941 3917 74%
c i 16.32 700 86 1  75  719  524 51% 39 238941 3916 74%
c i 16.32 700 86 1  75  721  525 51% 39 238941 3915 74%
c i 16.33 700 85 1  75  733  536 51% 39 238941 3914 74%
c i 16.33 700 85 1  75  735  528 51% 39 238941 3913 74%
c i 16.34 700 85 1  75  739  531 51% 39 238941 3912 74%
c i 16.34 700 85 1  75  742  532 51% 39 238941 3911 74%
c i 16.37 700 84 1  75  761  548 51% 39 238941 3910 73%
c i 16.38 700 84 1  75  762  548 51% 39 238941 3909 73%
c i 16.39 700 82 1  75  785  559 51% 39 238941 3908 73%
c i 16.39 700 82 1  75  787  560 51% 39 238941 3907 73%
c i 16.40 700 81 1  75  810  580 51% 38 238941 3906 73%
c i 16.41 700 81 1  75  813  582 51% 38 238941 3905 73%
c i 16.41 700 81 1  75  814  582 51% 38 238941 3904 73%
c 
c  seconds   reductions  redundant   irredundant
c          MB    restarts       trail       variables
c           level   conflicts       glue         remaining
c 
c i 16.41 700 80 1  75  821  585 51% 38 238941 3903 73%
c i 16.44 700 77 1  75  879  621 52% 37 238941 3902 73%
c i 16.45 700 76 1  75  894  622 52% 37 238941 3901 73%
c i 16.45 700 76 1  75  895  622 52% 37 238941 3900 73%
c i 16.48 700 72 1  75  975  661 52% 35 238941 3898 73%
c } 16.49 700 71 1  75 1001  679 52% 35 238941 3898 73%
c [ 16.49 700  0 1  75 1001  679  0% 0 238941 3898 73%
c O 16.50 700  0 1  75 1002  679 28% 0 238941 3898 73%
c i 16.50 700  0 1  75 1002  679 28% 0 238941 3874 73%
c i 16.50 700  0 1  75 1003  679 28% 0 238941 3851 72%
c i 16.51 700  0 1  75 1004  679 29% 0 238941 3827 72%
c i 16.51 700  0 1  75 1006  679 30% 0 238941 3778 71%
c i 16.51 700  0 1  75 1007  679 30% 0 238941 3753 71%
c i 16.59 700  6 1  75 1031  688 40% 4 238941 3752 71%
c i 16.60 700  5 1  75 1032  688 41% 4 238941 3751 71%
c i 16.61 700  7 1  75 1039  690 44% 5 238941 3750 70%
c i 16.61 700  6 1  75 1040  690 44% 5 238941 3749 70%
c i 16.61 700  6 1  75 1041  690 45% 5 238941 3732 70%
c i 16.63 700  7 1  75 1046  693 46% 6 238941 3712 70%
c i 16.63 700  7 1  75 1049  692 47% 6 238941 3711 70%
c 
c  seconds   reductions  redundant  irredundant
c          MB    restarts       trail      variables
c           level   conflicts       glue        remaining
c 
c i 16.63 700  7 1  75 1050  692 47% 6 238941 3710 70%
c i 16.63 700  7 1  75 1054  695 47% 6 238941 3709 70%
c i 16.64 700  7 1  75 1059  690 48% 6 238941 3708 70%
c i 16.64 700  7 1  75 1065  691 48% 6 238941 3707 70%
c i 16.64 700  7 1  75 1066  691 48% 6 238941 3706 70%
c i 16.64 700  7 1  75 1068  692 48% 6 238941 3705 70%
c i 16.64 700  7 1  75 1069  692 48% 6 238941 3704 70%
c i 16.64 700  7 1  75 1070  692 48% 6 238941 3703 70%
c i 16.64 700  7 1  75 1071  692 48% 6 238941 3702 70%
c i 16.64 700  7 1  75 1072  692 48% 6 238941 3701 70%
c i 16.66 700  7 1  75 1077  696 49% 6 238941 3700 70%
c i 16.66 700  7 1  75 1079  696 49% 6 238941 3699 70%
c i 16.66 700  7 1  75 1080  696 49% 6 238941 3698 70%
c i 16.66 700  7 1  75 1081  696 49% 6 238941 3697 69%
c i 16.66 700  7 1  75 1082  696 49% 6 238941 3696 69%
c i 16.66 700  7 1  75 1084  697 49% 6 238941 3695 69%
c i 16.66 700  7 1  75 1085  697 49% 6 238941 3694 69%
c i 16.67 700  7 1  75 1089  694 49% 6 238941 3693 69%
c i 16.67 700  7 1  75 1090  694 49% 6 238941 3692 69%
c i 16.67 700  7 1  75 1092  693 49% 6 238941 3691 69%
c 
c  seconds   reductions  redundant  irredundant
c          MB    restarts       trail      variables
c           level   conflicts       glue        remaining
c 
c i 16.67 700  7 1  75 1093  693 49% 6 238941 3690 69%
c i 16.67 700  7 1  75 1094  693 49% 6 238941 3689 69%
c i 16.67 700  7 1  75 1095  693 49% 6 238941 3688 69%
c i 16.69 700  7 1  75 1108  700 50% 6 238941 3687 69%
c - 17.29 783  7 2  75 1129  599 51% 6 236065 3687 69%
c i 17.72 783 14 2  75 1765  949 54% 11 236065 3686 69%
c i 17.99 783 17 2  76 2275 1283 54% 13 236065 3685 69%
c - 18.20 782 17 3  76 2364 1055 54% 13 236059 3685 69%
c ] 18.63 782 19 3  76 3004 1463 36% 15 236059 3685 69%
c { 18.63 782 71 3  76 3004 1463 75% 35 236059 3685 69%
c F 18.66 782 71 3  76 3005 1464 75% 35 236059 3685 69%
c - 19.16 782 49 4  76 4011 1705 55% 26 236059 3685 69%
c 2 20.21 782 39 4  76 5001 3345 48% 22 235989 3673 69%
c p 21.59 782 39 4  76 5001 7946 48% 22 235989 3540 67%
c d 21.88 782 39 4  76 5001 7504 48% 22 183776 3537 66%
c # 22.60 782 35 4  80 6007 8281 45% 21 183776 3537 66%
c - 22.84 760 35 5  80 6076 2562 45% 20 183776 3537 66%
c } 23.93 760 33 5  85 7004 3297 42% 20 183776 3537 66%
c [ 23.93 760 19 5  85 7004 3297 36% 15 183776 3537 66%
c - 25.03 701 21 6  86 8351 2933 34% 17 183776 3537 66%
c 
c  seconds   reductions   redundant   irredundant
c          MB    restarts        trail       variables
c           level    conflicts       glue         remaining
c 
c I 26.82 701 24 6  87 10011 4023 34% 18 183776 3537 66%
c - 29.49 761 24 7  88 11007 3467 33% 18 183776 3537 66%
c - 32.12 701 27 8  90 14044 4042 33% 20 183776 3537 66%
c ] 33.03 700 28 8  90 15004 4674 33% 21 183776 3537 66%
c { 33.03 701 33 8  90 15004 4674 42% 20 183776 3537 66%
c 2 33.09 701 33 8  90 15004 6014 42% 20 183765 3537 66%
c p 34.91 701 33 8  90 15004 10552 42% 20 183765 3536 66%
c B 35.06 701 33 8  90 15013 10558 42% 20 183765 3536 66%
c s 37.30 701 34 8 140 15715 10668 41% 20 180774 3536 66%
c v 40.69 701 34 8 140 15715 10668 41% 20 180660 3536 66%
c t 40.76 701 34 8 140 15715 10635 41% 20 180635 3536 66%
c e 41.39 702 34 8 140 15715 6725 41% 20 175867 969 18%
c s 41.49 702 34 8 140 15715 6724 41% 20 174425 969 18%
c - 44.69 703 32 9 213 17457 4682 56% 19 174425 969 18%
c W 46.40 702 28 9 264 21024 7012 59% 18 174425 969 18%
c - 46.80 702 28 10 265 21185 5004 59% 18 174425 969 18%
c - 50.46 702 26 11 395 25282 5312 59% 17 174425 969 18%
c F 56.68 702 26 11 564 28025 7475 58% 17 174425 969 18%
c - 59.50 702 25 12 571 29753 6342 58% 17 174425 969 18%
c 2 60.05 703 25 12 571 30007 7564 58% 17 174424 969 18%
c 
c  seconds   reductions     redundant   irredundant
c          MB     restarts         trail       variables
c           level     conflicts        glue        remaining
c 
c p 61.54 703 25 12 571 30007 10893 58% 17 174424 958 18%
c } 63.40 703 25 12 587 31006 11605 58% 16 174424 958 18%
c [ 63.40 703 28 12 587 31006 11605 124% 21 174424 958 18%
c - 66.68 702 25 13 589 34597 7173 103% 19 174394 958 18%
c B 68.76 702 29 13 590 36027 8301 99% 21 174394 958 18%
c - 73.19 703 27 14 593 39812 8085 89% 19 174394 958 18%
c W 81.33 704 29 14 594 45028 11837 82% 21 174394 958 18%
c - 81.93 703 30 15 594 45398 8935 82% 21 174394 958 18%
c s 82.35 703 30 15 594 45683 9166 81% 21 171734 958 18%
c v 84.17 703 30 15 594 45683 9166 81% 21 171688 958 18%
c t 84.25 704 30 15 594 45683 9166 81% 21 171685 958 18%
c e 84.86 704 30 15 594 45683 9137 81% 21 171681 951 18%
c s 85.02 704 30 15 594 45683 9136 81% 21 169971 951 18%
c p 91.98 704 31 15 595 50011 16382 78% 22 169971 950 18%
c d 92.10 704 31 15 595 50011 16258 78% 22 157375 949 18%
c - 94.89 703 31 16 595 51360 9187 77% 22 157375 949 18%
c O 98.21 704 30 16 596 55031 11899 75% 21 157375 949 18%
c - 100.11 703 29 17 598 57464 9409 74% 21 157375 949 18%
c ] 105.29 703 29 17 602 63007 13781 72% 21 157375 949 18%
c { 105.29 703 25 17 602 63007 13781 58% 16 157375 949 18%
c 
c  seconds    reductions     redundant   irredundant
c           MB     restarts         trail       variables
c            level     conflicts        glue        remaining
c 
c - 107.47 704 25 18 693 63929 10037 58% 16 157375 949 18%
c B 110.15 704 25 18 762 66032 11411 58% 16 157375 949 18%
c - 115.30 704 23 19 818 70758 9679 58% 16 157375 949 18%
c p 121.86 703 22 19 889 75012 16174 59% 15 157375 946 18%
c - 125.76 704 22 20 1028 77939 10509 59% 15 157368 946 18%
c W 126.30 704 22 20 1042 78033 10581 59% 15 157368 946 18%
c - 135.57 703 22 21 1383 85481 11535 59% 15 157368 946 18%
c s 140.06 703 21 21 1477 90576 14500 59% 15 154605 946 18%
c v 142.07 704 21 21 1477 90576 14500 59% 15 154562 946 18%
c t 142.15 704 21 21 1477 90576 14495 59% 15 154562 946 18%
c e 142.64 703 21 21 1477 90576 14471 59% 15 154421 897 17%
c s 142.87 704 21 21 1477 90576 14470 59% 15 151965 897 17%
c # 143.79 704 21 21 1477 91035 14797 59% 15 151965 897 17%
c - 146.00 704 21 22 1531 93382 11721 59% 14 151965 897 17%
c - 155.17 703 20 23 1692 101537 12541 58% 14 151965 897 17%
c 2 159.61 703 20 23 1844 105012 15415 58% 14 151965 896 17%
c p 160.74 703 20 23 1844 105012 18450 58% 14 151965 895 17%
c B 160.96 703 20 23 1844 105036 18473 58% 14 151965 895 17%
c - 164.36 703 19 24 2017 110045 13563 58% 14 151959 895 17%
c - 172.40 704 19 25 2446 118907 13433 58% 14 151959 895 17%
c 
c  seconds    reductions       redundant   irredundant
c           MB     restarts           trail       variables
c            level      conflicts         glue        remaining
c 
c W 174.81 704 19 25 2527 120042 14206 58% 14 151959 895 17%
c } 180.35 704 19 25 3014 127007 18438 58% 14 151959 895 17%
c [ 180.35 704 29 25 3014 127007 18438 72% 21 151959 895 17%
c - 180.84 704 28 26 3014 128124 13950 72% 21 151959 895 17%
c i 183.69 704 26 26 3016 132556 16672 70% 20 151959 894 17%
c B 184.62 704 29 26 3018 136048 19252 69% 22 151959 894 17%
c - 185.71 704 30 27 3020 137697 12302 69% 22 151956 894 17%
c p 188.55 704 30 27 3021 140016 17735 68% 22 151956 892 17%
c - 194.16 703 30 28 3022 147628 14699 67% 23 151950 892 17%
c s 196.46 704 29 28 3022 149814 16225 66% 23 148631 892 17%
c v 198.81 704 29 28 3022 149814 16225 66% 23 148609 892 17%
c w 198.97 704 29 28 3022 149814 16218 66% 23 148609 892 17%
c t 198.97 704 29 28 3022 149814 16216 66% 23 148607 892 17%
c e 199.42 704 29 28 3022 149814 16216 66% 23 148605 891 17%
c s 199.77 704 29 28 3022 149814 16216 66% 23 144170 891 17%
c W 203.15 704 29 28 3023 153049 18336 66% 22 144170 891 17%
c - 207.20 704 28 29 3023 157908 15568 65% 22 144170 891 17%
c - 211.65 704 28 30 3024 168341 16489 65% 22 144170 891 17%
c I 212.56 704 28 30 3026 171051 18564 64% 22 144170 891 17%
c - 220.89 703 29 31 3030 179119 16477 63% 22 144170 891 17%
c 
c  seconds    reductions       redundant   irredundant
c           MB     restarts           trail       variables
c            level      conflicts         glue        remaining
c 
c p 222.28 703 29 31 3030 180016 20734 63% 23 144170 891 17%
c B 232.60 703 30 31 3037 190052 27911 62% 23 144170 891 17%
c - 232.76 703 31 32 3037 190244 17729 62% 23 144170 891 17%
c ] 241.30 704 34 32 3038 200003 25231 61% 26 144170 891 17%
c ? 241.30 704 34 32 3038 200003 25231 61% 26 144170 891 17%
c 
c --- [ writing output ] -----------------------------------------------------
c 
c writing simplified CNF to DIMACS file 'simp/26.cubes302.adj.simp1'
c * 241.30 704 34 32 3038 200003 25231 61% 26 144170 891 17%
c opening file to write 'simp/26.cubes302.adj.simp1'
c writing 'p cnf 5320 144170' header
c closing file 'simp/26.cubes302.adj.simp1'
c after writing 55713558 bytes 53.1 MB
c wrote 144170 clauses in 0.45 seconds process time
c 
c --- [ writing extension ] --------------------------------------------------
c 
c writing extension stack to 'simp/26.cubes302.adj.ext1'
c opening file to write 'simp/26.cubes302.adj.ext1'
c closing file 'simp/26.cubes302.adj.ext1'
c after writing 160587 bytes 0.2 MB
c wrote 7309 witnesses in 0.00 seconds process time
c 
c --- [ result ] -------------------------------------------------------------
c 
c UNKNOWN
c 
c --- [ run-time profiling ] -------------------------------------------------
c 
c process time taken by individual solving procedures
c (percentage relative to process time for solving)
c 
c       206.18   88.65% search
c       102.95   44.27% stable
c        99.61   42.83% unstable
c        26.39   11.35% simplify
c         9.85    4.23% vivify
c         9.52    4.09% probe
c         8.73    3.75% parse
c         4.19    1.80% elim
c         2.35    1.01% walk
c         1.59    0.69% subsume
c         1.27    0.55% lucky
c         0.25    0.11% ternary
c   =================================
c       232.58   96.20% solve
c 
c last line shows process time for solving
c (percentage relative to total process time)
c 
c --- [ statistics ] ---------------------------------------------------------
c 
c chronological:             45850        22.92 %  of conflicts
c conflicts:                200003       859.94    per second
c decisions:                333440      1433.68    per second
c eliminated:                 2624        49.32 %  of all variables
c fixed:                      1789        33.63 %  of all variables
c learned:                  195595        97.80 %  per conflict
c learned_lits:           27140057       100.00 %  learned literals
c minimized:                     0         0.00 %  learned literals
c shrunken:               16309480        60.09 %  learned literals
c minishrunken:            2206595         8.13 %  learned literals
c propagations:           14447922         0.06 M  per second
c reduced:                  109421        54.71 %  per conflict
c rephased:                     19     10526.47    interval
c restarts:                   3038        65.83    interval
c stabilizing:                   4        57.50 %  of conflicts
c substituted:                  16         0.30 %  of all variables
c subsumed:                  79978         3.40 %  of all clauses
c strengthened:              29071         1.24 %  of all clauses
c ternary:                    6591         0.65 %  of resolved
c vivified:                    263         0.01 %  of all clauses
c walked:                        5     40000.60    interval
c weakened:                   5520         3.06    average size
c 
c seconds are measured in process time for solving
c 
c --- [ resources ] ----------------------------------------------------------
c 
c total process time since initialization:       241.76    seconds
c total real time since initialization:          241.92    seconds
c maximum resident set size of process:          864.44    MB
c 
c --- [ shutting down ] ------------------------------------------------------
c 
c exit 0
WARNING! DIMACS header mismatch: wrong number of variables.
============================[ Problem Statistics ]=============================
|                                                                             |
|  Number of variables:          3429                                         |
|  Number of clauses:          144172                                         |
|  Parse time:                   0.71 s                                       |
|  Simplification time:          0.01 s                                       |
|                                                                             |
============================[ Search Statistics ]====================================================
| Conflicts |          ORIGINAL         |          LEARNT          | Num Sols |      SUBGRAPHS      |
|           |    Vars  Clauses Literals |    Limit  Clauses Lit/Cl |          | Canonical Noncanon. |
=====================================================================================================
|       110 |    3343   144182 12191229 |     2000      110     67 |        0 |        26        10 |
|       317 |    3343   144239 12192552 |     2000      317     50 |        0 |        65        67 |
|       542 |    3343   144239 12192552 |     2000      542     49 |        0 |        65        67 |
|       966 |    3343   144326 12193855 |     2000      966     49 |        0 |        88       154 |
|      1500 |    3343   144354 12194501 |     2000     1500     53 |        0 |       111       182 |
|      2356 |    3343   144451 12195503 |     3601     1357     38 |        0 |       143       279 |
|      3587 |    3343   144543 12197028 |     3601     2588     61 |        0 |       175       371 |
|      5385 |    3343   144633 12198626 |     5003     2588     35 |        0 |       237       461 |
|      8325 |    3343   145011 12204965 |     6307     3032     23 |        0 |       355       839 |
|     12368 |    3343   145210 12209652 |     7557     3925     24 |        0 |       460      1038 |
|     18282 |    3343   145358 12212513 |     8785     6067     49 |        0 |       515      1186 |
|     27256 |    3343   145683 12217996 |    11201     5657     24 |        0 |       651      1511 |
|     40816 |    3343   146269 12228413 |    13607     7423     30 |        0 |       907      2097 |
|     61422 |    3343   147414 12248301 |    16004    13826     34 |        0 |      1269      3242 |
|     91426 |    3327   148226 12264590 |    19618    18044     48 |        0 |      1620      4054 |
|    136396 |    3317   149407 12282341 |    24415    20211     41 |        0 |      2040      5235 |
|    203372 |    3288   150699 12299429 |    30411    20182     39 |        0 |      2518      6527 |
=====================================================================================================
Number of solutions   : 0
Canonical subgraphs   : 3029           (4 /sec)
          order  3    : 1              (166667 /sec)
          order  4    : 1              (333333 /sec)
          order  5    : 1              (250000 /sec)
          order  6    : 1              (55556 /sec)
          order  7    : 1              (8772 /sec)
          order  8    : 2              (1366 /sec)
          order  9    : 3              (211 /sec)
          order 10    : 8              (41 /sec)
          order 11    : 30             (11 /sec)
          order 12    : 124            (4 /sec)
          order 13    : 351            (3 /sec)
          order 14    : 899            (4 /sec)
          order 15    : 783            (4 /sec)
          order 16    : 723            (4 /sec)
          order 17    : 101            (4 /sec)
          order 18    : 0              (-nan /sec)
          order 19    : 0              (-nan /sec)
          order 20    : 0              (-nan /sec)
          order 21    : 0              (-nan /sec)
Noncanonical subgraphs: 7400           (1757 /sec)
          order  3    : 0              (-nan /sec)
          order  4    : 0              (-nan /sec)
          order  5    : 0              (-nan /sec)
          order  6    : 0              (-nan /sec)
          order  7    : 0              (-nan /sec)
          order  8    : 0              (-nan /sec)
          order  9    : 0              (-nan /sec)
          order 10    : 0              (-nan /sec)
          order 11    : 0              (-nan /sec)
          order 12    : 0              (-nan /sec)
          order 13    : 1309           (22227 /sec)
          order 14    : 3911           (8685 /sec)
          order 15    : 1772           (11597 /sec)
          order 16    : 270            (1875 /sec)
          order 17    : 137            (40 /sec)
          order 18    : 1              (240 /sec)
          order 19    : 0              (-nan /sec)
          order 20    : 0              (-nan /sec)
Canonicity checking   : 837.872 s
Noncanonicity checking: 4.21058 s
Total canonicity time : 842.083 s
database reductions   : 27
restarts              : 637
conflicts             : 268538         (293 /sec)
decisions             : 389442         (0.00 % random) (424 /sec)
propagations          : 13339981       (14533 /sec)
conflict literals     : 20331384       (50.29 % deleted)
actual reward         : 0.250679
Memory used           : 177.00 MB
CPU time              : 917.94 s

UNSATISFIABLE
